33D32945 STP File, STP Format Version 1.0

SECTION Comments
Name "cube_n10_d4_s16"
Problem "Euclidean Steiner Tree Problem"
Remark "Generated with STPGenerator. 4 dimensions."
END

SECTION Graph
Nodes 10
END

SECTION Coordinates
DDDD 0 0.2154374701 0.0895364271 0.3215230151 0.5994994997
DDDD 1 0.9209823329 0.0083380486 0.2498201687 0.6923724262
DDDD 2 0.3582976681 0.8231695224 0.1180784167 0.5551794663
DDDD 3 0.3833639991 0.2886057418 0.8238008194 0.3094491373
DDDD 4 0.8584360545 0.6783925484 0.0389199243 0.0333043621
DDDD 5 0.0983172874 0.3055314134 0.1783176238 0.3670024752
DDDD 6 0.0997784725 0.5895236719 0.2716148031 0.0401816108
DDDD 7 0.8858513329 0.9203709387 0.7515285484 0.1012888030
DDDD 8 0.0099073653 0.0730515630 0.7007883027 0.9308896982
DDDD 9 0.0813896121 0.9506084719 0.6232621240 0.4396872802
END
